%mem=20GB
%nprocshared=16
%chk=LIG
# b3lyp/6-311++g(d,p) opt(Z-matrix) nosymm

Torsion test

0 1
C  13.218  40.434  60.317
N  13.381  41.510  61.196
C  14.437  42.525  61.136
O  15.137  42.425  62.365
N  14.023  40.069  59.311
C  13.823  43.924  61.083
N  12.422  38.350  58.898
O  14.447  44.802  60.245
C  14.003  44.445  62.519
O  14.188  45.820  62.571
C  15.219  43.647  63.059
C  15.112  43.206  64.546
O  16.411  42.745  65.102
C  13.616  38.948  58.680
N  10.533  37.937  60.181
N  11.588  40.324  61.882
C  12.081  39.755  60.765
C  11.662  38.684  60.000
C  12.380  41.319  62.125
H   9.850  38.323  60.861
H  14.269  45.575  60.753
H  13.473  46.196  63.020
H  16.800  42.039  64.533
H  15.078  42.244  60.278
H  12.806  43.836  60.654
H  13.224  44.111  63.132
H  16.188  44.112  62.792
H  10.170  37.436  59.343
H  14.326  38.627  57.981
H  12.186  41.925  63.009
H  14.723  44.060  65.094
H  14.365  42.424  64.608

